30	100	100	100
83	88	82
53	84	72
69	86	74
56	50	68
50	62	64
89	59	53
88	54	76
66	79	83
64	91	54
82	93	69
88	88	84
92	62	62
51	72	73
89	89	70
93	63	77
93	51	90
52	92	64
55	59	90
72	56	92
61	90	85
86	97	78
54	95	61
79	89	85
81	79	92
68	93	68
57	82	71
60	91	60
57	74	89
74	63	94
64	54	53
